gen	cost
1	20996
2	20893
3	20736
4	20719
5	20606
6	20596
7	20494
8	20439
9	20375
10	20324
11	20236
12	20084
13	20050
14	20005
15	19942
16	19861
17	19803
18	19665
19	19596
20	19529
21	19512
22	19491
23	19472
24	19365
25	19290
26	19257
27	19231
28	19142
29	19128
30	19071
31	18999
32	18977
33	18968
34	18923
35	18902
36	18866
37	18829
38	18746
39	18716
40	18639
41	18628
42	18596
43	18578
44	18566
45	18511
46	18397
47	18344
48	18329
49	18299
50	18274

